100 3011
984 1052 1061 1002 872 438 1125 635 639 614 1073 793 756 662 864 625 766 1089 1042 1041 439 955 296 776 981 775 1018 349 1062 935 1146 1073 1059 619 1021 758 924 1095 1061 787 428 1039 925 604 942 716 514 1120 766 930 1140 1122 293 380 214 723 914 717 901 909 912 893 778 552 821 766 966 702 1060 693 1085 588 438 516 1131 1115 1099 1079 761 776 644 1060 416 860 853 1130 914 928 1090 1080 987 922 908 881 133 888 590 1057 1032 823 
652 773 790 682 488 111 928 242 245 225 813 393 353 264 477 234 364 848 753 752 112 605 50 374 647 373 710 70 792 575 979 814 786 229 714 355 559 861 789 386 106 748 560 217 585 313 155 915 363 568 965 921 49 83 26 320 545 314 526 537 542 516 376 180 425 363 623 300 787 292 839 205 111 156 941 904 868 827 358 374 249 788 100 472 463 939 544 565 850 829 656 556 536 499 10 509 207 782 735 427 
